*SPEF "ieee 1481-1999"
*DESIGN "counter_top"
*DATE "20:29:27 Friday July 31, 2026"
*VENDOR "The OpenROAD Project"
*PROGRAM "OpenROAD"
*VERSION "26Q1-1024-gdcf36133a"
*DESIGN_FLOW "NAME_SCOPE LOCAL" "PIN_CAP NONE"
*DIVIDER /
*DELIMITER :
*BUS_DELIMITER []
*T_UNIT 1 NS
*C_UNIT 1 PF
*R_UNIT 1 OHM
*L_UNIT 1 HENRY

*NAME_MAP
*3 clock_i
*4 counter_value_o[0]
*5 counter_value_o[1]
*6 counter_value_o[2]
*7 counter_value_o[3]
*8 counter_value_o[4]
*9 counter_value_o[5]
*10 counter_value_o[6]
*11 counter_value_o[7]
*12 enable_i
*13 reset_n_i
*14 _00_
*15 _01_
*16 _02_
*17 _03_
*18 _04_
*19 _05_
*20 _06_
*21 _07_
*22 _08_
*23 _09_
*24 _10_
*25 _11_
*26 _12_
*27 _13_
*28 _14_
*29 _15_
*30 _16_
*31 _17_
*32 _18_
*33 _19_
*34 _20_
*35 _21_
*36 _22_
*37 _23_
*38 _24_
*39 _25_
*40 _26_
*41 _27_
*42 _28_
*43 _29_
*44 _30_
*45 clknet_0_clock_i
*46 clknet_1_0__leaf_clock_i
*47 clknet_1_1__leaf_clock_i
*48 net
*49 net1
*50 net10
*51 net11
*52 net12
*53 net13
*54 net14
*55 net15
*56 net16
*57 net17
*58 net18
*59 net19
*60 net2
*61 net20
*62 net21
*63 net22
*64 net23
*65 net24
*66 net25
*67 net26
*68 net27
*69 net28
*70 net29
*71 net3
*72 net30
*73 net31
*74 net32
*75 net33
*76 net4
*77 net5
*78 net6
*79 net7
*80 net8
*81 net9
*82 FILLER_0_0
*83 FILLER_0_105
*84 FILLER_0_112
*85 FILLER_0_119
*86 FILLER_0_126
*87 FILLER_0_133
*88 FILLER_0_14
*89 FILLER_0_140
*90 FILLER_0_147
*91 FILLER_0_154
*92 FILLER_0_161
*93 FILLER_0_168
*94 FILLER_0_175
*95 FILLER_0_182
*96 FILLER_0_189
*97 FILLER_0_196
*98 FILLER_0_203
*99 FILLER_0_21
*100 FILLER_0_210
*101 FILLER_0_217
*102 FILLER_0_224
*103 FILLER_0_231
*104 FILLER_0_238
*105 FILLER_0_245
*106 FILLER_0_252
*107 FILLER_0_259
*108 FILLER_0_266
*109 FILLER_0_273
*110 FILLER_0_28
*111 FILLER_0_280
*112 FILLER_0_287
*113 FILLER_0_294
*114 FILLER_0_301
*115 FILLER_0_308
*116 FILLER_0_315
*117 FILLER_0_322
*118 FILLER_0_329
*119 FILLER_0_336
*120 FILLER_0_343
*121 FILLER_0_35
*122 FILLER_0_350
*123 FILLER_0_357
*124 FILLER_0_364
*125 FILLER_0_371
*126 FILLER_0_378
*127 FILLER_0_385
*128 FILLER_0_42
*129 FILLER_0_49
*130 FILLER_0_56
*131 FILLER_0_63
*132 FILLER_0_7
*133 FILLER_0_70
*134 FILLER_0_77
*135 FILLER_0_84
*136 FILLER_0_91
*137 FILLER_0_98
*138 FILLER_10_0
*139 FILLER_10_105
*140 FILLER_10_112
*141 FILLER_10_119
*142 FILLER_10_126
*143 FILLER_10_133
*144 FILLER_10_14
*145 FILLER_10_140
*146 FILLER_10_147
*147 FILLER_10_154
*148 FILLER_10_161
*149 FILLER_10_168
*150 FILLER_10_175
*151 FILLER_10_182
*152 FILLER_10_189
*153 FILLER_10_196
*154 FILLER_10_203
*155 FILLER_10_21
*156 FILLER_10_210
*157 FILLER_10_217
*158 FILLER_10_224
*159 FILLER_10_231
*160 FILLER_10_238
*161 FILLER_10_245
*162 FILLER_10_252
*163 FILLER_10_259
*164 FILLER_10_266
*165 FILLER_10_273
*166 FILLER_10_28
*167 FILLER_10_280
*168 FILLER_10_287
*169 FILLER_10_294
*170 FILLER_10_301
*171 FILLER_10_308
*172 FILLER_10_315
*173 FILLER_10_322
*174 FILLER_10_329
*175 FILLER_10_336
*176 FILLER_10_343
*177 FILLER_10_35
*178 FILLER_10_350
*179 FILLER_10_357
*180 FILLER_10_364
*181 FILLER_10_371
*182 FILLER_10_378
*183 FILLER_10_385
*184 FILLER_10_42
*185 FILLER_10_49
*186 FILLER_10_56
*187 FILLER_10_63
*188 FILLER_10_7
*189 FILLER_10_70
*190 FILLER_10_77
*191 FILLER_10_84
*192 FILLER_10_91
*193 FILLER_10_98
*194 FILLER_11_0
*195 FILLER_11_105
*196 FILLER_11_112
*197 FILLER_11_119
*198 FILLER_11_126
*199 FILLER_11_133
*200 FILLER_11_14
*201 FILLER_11_140
*202 FILLER_11_147
*203 FILLER_11_154
*204 FILLER_11_161
*205 FILLER_11_168
*206 FILLER_11_175
*207 FILLER_11_182
*208 FILLER_11_189
*209 FILLER_11_196
*210 FILLER_11_203
*211 FILLER_11_21
*212 FILLER_11_210
*213 FILLER_11_217
*214 FILLER_11_224
*215 FILLER_11_231
*216 FILLER_11_238
*217 FILLER_11_245
*218 FILLER_11_252
*219 FILLER_11_259
*220 FILLER_11_266
*221 FILLER_11_273
*222 FILLER_11_28
*223 FILLER_11_280
*224 FILLER_11_287
*225 FILLER_11_294
*226 FILLER_11_301
*227 FILLER_11_308
*228 FILLER_11_315
*229 FILLER_11_322
*230 FILLER_11_329
*231 FILLER_11_336
*232 FILLER_11_343
*233 FILLER_11_35
*234 FILLER_11_350
*235 FILLER_11_357
*236 FILLER_11_364
*237 FILLER_11_371
*238 FILLER_11_378
*239 FILLER_11_385
*240 FILLER_11_42
*241 FILLER_11_49
*242 FILLER_11_56
*243 FILLER_11_63
*244 FILLER_11_7
*245 FILLER_11_70
*246 FILLER_11_77
*247 FILLER_11_84
*248 FILLER_11_91
*249 FILLER_11_98
*250 FILLER_12_0
*251 FILLER_12_105
*252 FILLER_12_112
*253 FILLER_12_119
*254 FILLER_12_126
*255 FILLER_12_133
*256 FILLER_12_14
*257 FILLER_12_140
*258 FILLER_12_147
*259 FILLER_12_154
*260 FILLER_12_161
*261 FILLER_12_168
*262 FILLER_12_175
*263 FILLER_12_182
*264 FILLER_12_189
*265 FILLER_12_196
*266 FILLER_12_203
*267 FILLER_12_21
*268 FILLER_12_210
*269 FILLER_12_217
*270 FILLER_12_224
*271 FILLER_12_231
*272 FILLER_12_238
*273 FILLER_12_245
*274 FILLER_12_252
*275 FILLER_12_259
*276 FILLER_12_266
*277 FILLER_12_273
*278 FILLER_12_28
*279 FILLER_12_280
*280 FILLER_12_287
*281 FILLER_12_294
*282 FILLER_12_301
*283 FILLER_12_308
*284 FILLER_12_315
*285 FILLER_12_322
*286 FILLER_12_329
*287 FILLER_12_336
*288 FILLER_12_343
*289 FILLER_12_35
*290 FILLER_12_350
*291 FILLER_12_357
*292 FILLER_12_364
*293 FILLER_12_371
*294 FILLER_12_378
*295 FILLER_12_385
*296 FILLER_12_42
*297 FILLER_12_49
*298 FILLER_12_56
*299 FILLER_12_63
*300 FILLER_12_7
*301 FILLER_12_70
*302 FILLER_12_77
*303 FILLER_12_84
*304 FILLER_12_91
*305 FILLER_12_98
*306 FILLER_13_0
*307 FILLER_13_105
*308 FILLER_13_112
*309 FILLER_13_119
*310 FILLER_13_126
*311 FILLER_13_133
*312 FILLER_13_14
*313 FILLER_13_140
*314 FILLER_13_147
*315 FILLER_13_154
*316 FILLER_13_161
*317 FILLER_13_170
*318 FILLER_13_185
*319 FILLER_13_195
*320 FILLER_13_202
*321 FILLER_13_209
*322 FILLER_13_21
*323 FILLER_13_216
*324 FILLER_13_223
*325 FILLER_13_230
*326 FILLER_13_237
*327 FILLER_13_244
*328 FILLER_13_251
*329 FILLER_13_258
*330 FILLER_13_265
*331 FILLER_13_272
*332 FILLER_13_279
*333 FILLER_13_28
*334 FILLER_13_286
*335 FILLER_13_293
*336 FILLER_13_300
*337 FILLER_13_307
*338 FILLER_13_314
*339 FILLER_13_321
*340 FILLER_13_328
*341 FILLER_13_335
*342 FILLER_13_342
*343 FILLER_13_349
*344 FILLER_13_35
*345 FILLER_13_356
*346 FILLER_13_363
*347 FILLER_13_370
*348 FILLER_13_377
*349 FILLER_13_384
*350 FILLER_13_391
*351 FILLER_13_42
*352 FILLER_13_49
*353 FILLER_13_56
*354 FILLER_13_63
*355 FILLER_13_7
*356 FILLER_13_70
*357 FILLER_13_77
*358 FILLER_13_84
*359 FILLER_13_91
*360 FILLER_13_98
*361 FILLER_14_0
*362 FILLER_14_103
*363 FILLER_14_110
*364 FILLER_14_117
*365 FILLER_14_14
*366 FILLER_14_144
*367 FILLER_14_154
*368 FILLER_14_204
*369 FILLER_14_21
*370 FILLER_14_211
*371 FILLER_14_218
*372 FILLER_14_230
*373 FILLER_14_232
*374 FILLER_14_238
*375 FILLER_14_240
*376 FILLER_14_246
*377 FILLER_14_253
*378 FILLER_14_257
*379 FILLER_14_276
*380 FILLER_14_28
*381 FILLER_14_283
*382 FILLER_14_290
*383 FILLER_14_297
*384 FILLER_14_304
*385 FILLER_14_311
*386 FILLER_14_318
*387 FILLER_14_325
*388 FILLER_14_332
*389 FILLER_14_339
*390 FILLER_14_346
*391 FILLER_14_35
*392 FILLER_14_353
*393 FILLER_14_360
*394 FILLER_14_367
*395 FILLER_14_374
*396 FILLER_14_381
*397 FILLER_14_388
*398 FILLER_14_42
*399 FILLER_14_49
*400 FILLER_14_56
*401 FILLER_14_60
*402 FILLER_14_69
*403 FILLER_14_7
*404 FILLER_14_76
*405 FILLER_14_83
*406 FILLER_14_92
*407 FILLER_14_96
*408 FILLER_15_0
*409 FILLER_15_14
*410 FILLER_15_167
*411 FILLER_15_178
*412 FILLER_15_207
*413 FILLER_15_21
*414 FILLER_15_214
*415 FILLER_15_231
*416 FILLER_15_279
*417 FILLER_15_286
*418 FILLER_15_29
*419 FILLER_15_293
*420 FILLER_15_300
*421 FILLER_15_307
*422 FILLER_15_314
*423 FILLER_15_321
*424 FILLER_15_328
*425 FILLER_15_335
*426 FILLER_15_342
*427 FILLER_15_349
*428 FILLER_15_356
*429 FILLER_15_363
*430 FILLER_15_370
*431 FILLER_15_377
*432 FILLER_15_384
*433 FILLER_15_391
*434 FILLER_15_40
*435 FILLER_15_47
*436 FILLER_15_54
*437 FILLER_15_7
*438 FILLER_15_73
*439 FILLER_15_75
*440 FILLER_15_85
*441 FILLER_16_0
*442 FILLER_16_100
*443 FILLER_16_11
*444 FILLER_16_136
*445 FILLER_16_143
*446 FILLER_16_150
*447 FILLER_16_157
*448 FILLER_16_204
*449 FILLER_16_211
*450 FILLER_16_218
*451 FILLER_16_225
*452 FILLER_16_232
*453 FILLER_16_238
*454 FILLER_16_240
*455 FILLER_16_282
*456 FILLER_16_289
*457 FILLER_16_296
*458 FILLER_16_303
*459 FILLER_16_310
*460 FILLER_16_317
*461 FILLER_16_324
*462 FILLER_16_331
*463 FILLER_16_338
*464 FILLER_16_345
*465 FILLER_16_352
*466 FILLER_16_359
*467 FILLER_16_366
*468 FILLER_16_373
*469 FILLER_16_380
*470 FILLER_16_387
*471 FILLER_16_391
*472 FILLER_16_47
*473 FILLER_16_54
*474 FILLER_16_58
*475 FILLER_16_7
*476 FILLER_16_93
*477 FILLER_17_0
*478 FILLER_17_101
*479 FILLER_17_108
*480 FILLER_17_11
*481 FILLER_17_115
*482 FILLER_17_121
*483 FILLER_17_128
*484 FILLER_17_135
*485 FILLER_17_142
*486 FILLER_17_149
*487 FILLER_17_156
*488 FILLER_17_163
*489 FILLER_17_167
*490 FILLER_17_17
*491 FILLER_17_182
*492 FILLER_17_184
*493 FILLER_17_193
*494 FILLER_17_200
*495 FILLER_17_207
*496 FILLER_17_214
*497 FILLER_17_225
*498 FILLER_17_232
*499 FILLER_17_239
*500 FILLER_17_24
*501 FILLER_17_246
*502 FILLER_17_267
*503 FILLER_17_271
*504 FILLER_17_277
*505 FILLER_17_284
*506 FILLER_17_291
*507 FILLER_17_298
*508 FILLER_17_305
*509 FILLER_17_31
*510 FILLER_17_312
*511 FILLER_17_319
*512 FILLER_17_323
*513 FILLER_17_329
*514 FILLER_17_336
*515 FILLER_17_343
*516 FILLER_17_350
*517 FILLER_17_357
*518 FILLER_17_364
*519 FILLER_17_371
*520 FILLER_17_375
*521 FILLER_17_38
*522 FILLER_17_381
*523 FILLER_17_388
*524 FILLER_17_45
*525 FILLER_17_52
*526 FILLER_17_59
*527 FILLER_17_69
*528 FILLER_17_7
*529 FILLER_17_76
*530 FILLER_17_80
*531 FILLER_17_87
*532 FILLER_17_94
*533 FILLER_1_102
*534 FILLER_1_109
*535 FILLER_1_11
*536 FILLER_1_116
*537 FILLER_1_123
*538 FILLER_1_130
*539 FILLER_1_137
*540 FILLER_1_144
*541 FILLER_1_151
*542 FILLER_1_158
*543 FILLER_1_165
*544 FILLER_1_172
*545 FILLER_1_179
*546 FILLER_1_18
*547 FILLER_1_186
*548 FILLER_1_193
*549 FILLER_1_200
*550 FILLER_1_207
*551 FILLER_1_214
*552 FILLER_1_221
*553 FILLER_1_228
*554 FILLER_1_235
*555 FILLER_1_242
*556 FILLER_1_249
*557 FILLER_1_25
*558 FILLER_1_256
*559 FILLER_1_263
*560 FILLER_1_270
*561 FILLER_1_277
*562 FILLER_1_284
*563 FILLER_1_291
*564 FILLER_1_298
*565 FILLER_1_305
*566 FILLER_1_312
*567 FILLER_1_319
*568 FILLER_1_32
*569 FILLER_1_326
*570 FILLER_1_333
*571 FILLER_1_340
*572 FILLER_1_347
*573 FILLER_1_354
*574 FILLER_1_361
*575 FILLER_1_368
*576 FILLER_1_375
*577 FILLER_1_382
*578 FILLER_1_389
*579 FILLER_1_39
*580 FILLER_1_391
*581 FILLER_1_4
*582 FILLER_1_46
*583 FILLER_1_53
*584 FILLER_1_60
*585 FILLER_1_67
*586 FILLER_1_74
*587 FILLER_1_81
*588 FILLER_1_88
*589 FILLER_1_95
*590 FILLER_2_0
*591 FILLER_2_105
*592 FILLER_2_112
*593 FILLER_2_119
*594 FILLER_2_126
*595 FILLER_2_133
*596 FILLER_2_14
*597 FILLER_2_140
*598 FILLER_2_147
*599 FILLER_2_154
*600 FILLER_2_161
*601 FILLER_2_168
*602 FILLER_2_175
*603 FILLER_2_182
*604 FILLER_2_189
*605 FILLER_2_196
*606 FILLER_2_203
*607 FILLER_2_21
*608 FILLER_2_210
*609 FILLER_2_217
*610 FILLER_2_224
*611 FILLER_2_231
*612 FILLER_2_238
*613 FILLER_2_245
*614 FILLER_2_252
*615 FILLER_2_259
*616 FILLER_2_266
*617 FILLER_2_273
*618 FILLER_2_28
*619 FILLER_2_280
*620 FILLER_2_287
*621 FILLER_2_294
*622 FILLER_2_301
*623 FILLER_2_308
*624 FILLER_2_315
*625 FILLER_2_322
*626 FILLER_2_329
*627 FILLER_2_336
*628 FILLER_2_343
*629 FILLER_2_35
*630 FILLER_2_350
*631 FILLER_2_357
*632 FILLER_2_364
*633 FILLER_2_371
*634 FILLER_2_378
*635 FILLER_2_385
*636 FILLER_2_42
*637 FILLER_2_49
*638 FILLER_2_56
*639 FILLER_2_63
*640 FILLER_2_7
*641 FILLER_2_70
*642 FILLER_2_77
*643 FILLER_2_84
*644 FILLER_2_91
*645 FILLER_2_98
*646 FILLER_3_0
*647 FILLER_3_105
*648 FILLER_3_112
*649 FILLER_3_119
*650 FILLER_3_126
*651 FILLER_3_133
*652 FILLER_3_14
*653 FILLER_3_140
*654 FILLER_3_147
*655 FILLER_3_154
*656 FILLER_3_161
*657 FILLER_3_168
*658 FILLER_3_175
*659 FILLER_3_182
*660 FILLER_3_189
*661 FILLER_3_196
*662 FILLER_3_203
*663 FILLER_3_21
*664 FILLER_3_210
*665 FILLER_3_217
*666 FILLER_3_224
*667 FILLER_3_231
*668 FILLER_3_238
*669 FILLER_3_245
*670 FILLER_3_252
*671 FILLER_3_259
*672 FILLER_3_266
*673 FILLER_3_273
*674 FILLER_3_28
*675 FILLER_3_280
*676 FILLER_3_287
*677 FILLER_3_294
*678 FILLER_3_301
*679 FILLER_3_308
*680 FILLER_3_315
*681 FILLER_3_322
*682 FILLER_3_329
*683 FILLER_3_336
*684 FILLER_3_343
*685 FILLER_3_35
*686 FILLER_3_350
*687 FILLER_3_357
*688 FILLER_3_364
*689 FILLER_3_371
*690 FILLER_3_378
*691 FILLER_3_385
*692 FILLER_3_42
*693 FILLER_3_49
*694 FILLER_3_56
*695 FILLER_3_63
*696 FILLER_3_7
*697 FILLER_3_70
*698 FILLER_3_77
*699 FILLER_3_84
*700 FILLER_3_91
*701 FILLER_3_98
*702 FILLER_4_0
*703 FILLER_4_105
*704 FILLER_4_112
*705 FILLER_4_119
*706 FILLER_4_126
*707 FILLER_4_133
*708 FILLER_4_14
*709 FILLER_4_140
*710 FILLER_4_147
*711 FILLER_4_154
*712 FILLER_4_161
*713 FILLER_4_168
*714 FILLER_4_175
*715 FILLER_4_182
*716 FILLER_4_189
*717 FILLER_4_196
*718 FILLER_4_203
*719 FILLER_4_21
*720 FILLER_4_210
*721 FILLER_4_217
*722 FILLER_4_224
*723 FILLER_4_231
*724 FILLER_4_238
*725 FILLER_4_245
*726 FILLER_4_252
*727 FILLER_4_259
*728 FILLER_4_266
*729 FILLER_4_273
*730 FILLER_4_28
*731 FILLER_4_280
*732 FILLER_4_287
*733 FILLER_4_294
*734 FILLER_4_301
*735 FILLER_4_308
*736 FILLER_4_315
*737 FILLER_4_322
*738 FILLER_4_329
*739 FILLER_4_336
*740 FILLER_4_343
*741 FILLER_4_35
*742 FILLER_4_350
*743 FILLER_4_357
*744 FILLER_4_364
*745 FILLER_4_371
*746 FILLER_4_378
*747 FILLER_4_385
*748 FILLER_4_42
*749 FILLER_4_49
*750 FILLER_4_56
*751 FILLER_4_63
*752 FILLER_4_7
*753 FILLER_4_70
*754 FILLER_4_77
*755 FILLER_4_84
*756 FILLER_4_91
*757 FILLER_4_98
*758 FILLER_5_0
*759 FILLER_5_105
*760 FILLER_5_112
*761 FILLER_5_119
*762 FILLER_5_126
*763 FILLER_5_133
*764 FILLER_5_14
*765 FILLER_5_140
*766 FILLER_5_147
*767 FILLER_5_154
*768 FILLER_5_161
*769 FILLER_5_168
*770 FILLER_5_175
*771 FILLER_5_182
*772 FILLER_5_189
*773 FILLER_5_196
*774 FILLER_5_203
*775 FILLER_5_21
*776 FILLER_5_210
*777 FILLER_5_217
*778 FILLER_5_224
*779 FILLER_5_231
*780 FILLER_5_238
*781 FILLER_5_245
*782 FILLER_5_252
*783 FILLER_5_259
*784 FILLER_5_266
*785 FILLER_5_273
*786 FILLER_5_28
*787 FILLER_5_280
*788 FILLER_5_287
*789 FILLER_5_294
*790 FILLER_5_301
*791 FILLER_5_308
*792 FILLER_5_315
*793 FILLER_5_322
*794 FILLER_5_329
*795 FILLER_5_336
*796 FILLER_5_343
*797 FILLER_5_35
*798 FILLER_5_350
*799 FILLER_5_357
*800 FILLER_5_364
*801 FILLER_5_371
*802 FILLER_5_378
*803 FILLER_5_385
*804 FILLER_5_42
*805 FILLER_5_49
*806 FILLER_5_56
*807 FILLER_5_63
*808 FILLER_5_7
*809 FILLER_5_70
*810 FILLER_5_77
*811 FILLER_5_84
*812 FILLER_5_91
*813 FILLER_5_98
*814 FILLER_6_0
*815 FILLER_6_105
*816 FILLER_6_112
*817 FILLER_6_119
*818 FILLER_6_126
*819 FILLER_6_133
*820 FILLER_6_14
*821 FILLER_6_140
*822 FILLER_6_147
*823 FILLER_6_154
*824 FILLER_6_161
*825 FILLER_6_168
*826 FILLER_6_175
*827 FILLER_6_182
*828 FILLER_6_189
*829 FILLER_6_196
*830 FILLER_6_203
*831 FILLER_6_21
*832 FILLER_6_210
*833 FILLER_6_217
*834 FILLER_6_224
*835 FILLER_6_231
*836 FILLER_6_238
*837 FILLER_6_245
*838 FILLER_6_252
*839 FILLER_6_259
*840 FILLER_6_266
*841 FILLER_6_273
*842 FILLER_6_28
*843 FILLER_6_280
*844 FILLER_6_287
*845 FILLER_6_294
*846 FILLER_6_301
*847 FILLER_6_308
*848 FILLER_6_315
*849 FILLER_6_322
*850 FILLER_6_329
*851 FILLER_6_336
*852 FILLER_6_343
*853 FILLER_6_35
*854 FILLER_6_350
*855 FILLER_6_357
*856 FILLER_6_364
*857 FILLER_6_371
*858 FILLER_6_378
*859 FILLER_6_385
*860 FILLER_6_42
*861 FILLER_6_49
*862 FILLER_6_56
*863 FILLER_6_63
*864 FILLER_6_7
*865 FILLER_6_70
*866 FILLER_6_77
*867 FILLER_6_84
*868 FILLER_6_91
*869 FILLER_6_98
*870 FILLER_7_0
*871 FILLER_7_105
*872 FILLER_7_112
*873 FILLER_7_119
*874 FILLER_7_126
*875 FILLER_7_133
*876 FILLER_7_14
*877 FILLER_7_140
*878 FILLER_7_147
*879 FILLER_7_154
*880 FILLER_7_161
*881 FILLER_7_168
*882 FILLER_7_175
*883 FILLER_7_182
*884 FILLER_7_189
*885 FILLER_7_196
*886 FILLER_7_203
*887 FILLER_7_21
*888 FILLER_7_210
*889 FILLER_7_217
*890 FILLER_7_224
*891 FILLER_7_231
*892 FILLER_7_238
*893 FILLER_7_245
*894 FILLER_7_252
*895 FILLER_7_259
*896 FILLER_7_266
*897 FILLER_7_273
*898 FILLER_7_28
*899 FILLER_7_280
*900 FILLER_7_287
*901 FILLER_7_294
*902 FILLER_7_301
*903 FILLER_7_308
*904 FILLER_7_315
*905 FILLER_7_322
*906 FILLER_7_329
*907 FILLER_7_336
*908 FILLER_7_343
*909 FILLER_7_35
*910 FILLER_7_350
*911 FILLER_7_357
*912 FILLER_7_364
*913 FILLER_7_371
*914 FILLER_7_378
*915 FILLER_7_385
*916 FILLER_7_42
*917 FILLER_7_49
*918 FILLER_7_56
*919 FILLER_7_63
*920 FILLER_7_7
*921 FILLER_7_70
*922 FILLER_7_77
*923 FILLER_7_84
*924 FILLER_7_91
*925 FILLER_7_98
*926 FILLER_8_0
*927 FILLER_8_105
*928 FILLER_8_112
*929 FILLER_8_119
*930 FILLER_8_126
*931 FILLER_8_133
*932 FILLER_8_14
*933 FILLER_8_140
*934 FILLER_8_147
*935 FILLER_8_154
*936 FILLER_8_161
*937 FILLER_8_168
*938 FILLER_8_175
*939 FILLER_8_182
*940 FILLER_8_189
*941 FILLER_8_196
*942 FILLER_8_203
*943 FILLER_8_21
*944 FILLER_8_210
*945 FILLER_8_217
*946 FILLER_8_224
*947 FILLER_8_231
*948 FILLER_8_238
*949 FILLER_8_245
*950 FILLER_8_252
*951 FILLER_8_259
*952 FILLER_8_266
*953 FILLER_8_273
*954 FILLER_8_28
*955 FILLER_8_280
*956 FILLER_8_287
*957 FILLER_8_294
*958 FILLER_8_301
*959 FILLER_8_308
*960 FILLER_8_315
*961 FILLER_8_322
*962 FILLER_8_329
*963 FILLER_8_336
*964 FILLER_8_343
*965 FILLER_8_35
*966 FILLER_8_350
*967 FILLER_8_357
*968 FILLER_8_364
*969 FILLER_8_371
*970 FILLER_8_378
*971 FILLER_8_385
*972 FILLER_8_42
*973 FILLER_8_49
*974 FILLER_8_56
*975 FILLER_8_63
*976 FILLER_8_7
*977 FILLER_8_70
*978 FILLER_8_77
*979 FILLER_8_84
*980 FILLER_8_91
*981 FILLER_8_98
*982 FILLER_9_102
*983 FILLER_9_109
*984 FILLER_9_11
*985 FILLER_9_116
*986 FILLER_9_123
*987 FILLER_9_130
*988 FILLER_9_137
*989 FILLER_9_144
*990 FILLER_9_151
*991 FILLER_9_158
*992 FILLER_9_165
*993 FILLER_9_172
*994 FILLER_9_179
*995 FILLER_9_18
*996 FILLER_9_186
*997 FILLER_9_193
*998 FILLER_9_200
*999 FILLER_9_207
*1000 FILLER_9_214
*1001 FILLER_9_221
*1002 FILLER_9_228
*1003 FILLER_9_235
*1004 FILLER_9_242
*1005 FILLER_9_249
*1006 FILLER_9_25
*1007 FILLER_9_256
*1008 FILLER_9_263
*1009 FILLER_9_270
*1010 FILLER_9_277
*1011 FILLER_9_284
*1012 FILLER_9_291
*1013 FILLER_9_298
*1014 FILLER_9_305
*1015 FILLER_9_312
*1016 FILLER_9_319
*1017 FILLER_9_32
*1018 FILLER_9_326
*1019 FILLER_9_333
*1020 FILLER_9_340
*1021 FILLER_9_347
*1022 FILLER_9_354
*1023 FILLER_9_361
*1024 FILLER_9_368
*1025 FILLER_9_375
*1026 FILLER_9_382
*1027 FILLER_9_389
*1028 FILLER_9_39
*1029 FILLER_9_391
*1030 FILLER_9_4
*1031 FILLER_9_46
*1032 FILLER_9_53
*1033 FILLER_9_60
*1034 FILLER_9_67
*1035 FILLER_9_74
*1036 FILLER_9_81
*1037 FILLER_9_88
*1038 FILLER_9_95
*1039 _39_
*1040 _40_
*1041 _41_
*1042 _42_
*1043 _43_
*1044 _44_
*1045 _45_
*1046 _46_
*1047 _47_
*1048 _48_
*1049 _49_
*1050 _50_
*1051 _51_
*1052 _52_
*1053 _53_
*1054 _54_
*1055 _55_
*1056 _56_
*1057 _57_
*1058 _58_
*1059 _59_
*1060 _60_
*1061 _61_
*1062 _62_
*1063 _63_
*1064 _64_
*1065 _65_
*1066 _66_
*1067 _67_
*1068 _68_
*1069 _69_
*1070 _70_
*1071 _70__12
*1072 _71_
*1073 _71__18
*1074 _72_
*1075 _72__16
*1076 _73_
*1077 _73__13
*1078 _74_
*1079 _74__17
*1080 _75_
*1081 _75__11
*1082 _76_
*1083 _76__15
*1084 _77_
*1085 _77__14
*1086 clkbuf_0_clock_i
*1087 clkbuf_1_0__f_clock_i
*1088 clkbuf_1_1__f_clock_i
*1089 hold19
*1090 hold20
*1091 hold21
*1092 hold22
*1093 hold23
*1094 hold24
*1095 hold25
*1096 hold26
*1097 hold27
*1098 hold28
*1099 hold29
*1100 hold30
*1101 hold31
*1102 hold32
*1103 hold33
*1104 hold34
*1105 input1
*1106 input2
*1107 output10
*1108 output3
*1109 output4
*1110 output5
*1111 output6
*1112 output7
*1113 output8
*1114 output9

*PORTS
clock_i I
counter_value_o[0] O
counter_value_o[1] O
counter_value_o[2] O
counter_value_o[3] O
counter_value_o[4] O
counter_value_o[5] O
counter_value_o[6] O
counter_value_o[7] O
enable_i I
reset_n_i I

*D_NET *3 0.00760926
*CONN
*P clock_i I
*I *1086:A I *D sg13cmos5l_buf_8
*CAP
1 clock_i 0.00338126
2 *1086:A 0.000423374
3 *3:10 0.00380463
4 *1086:A *1049:A 0
5 *1086:A *30:8 0
6 *1086:A *78:22 0
7 *3:10 *1040:C 0
8 *3:10 *1108:A 0
9 *3:10 *1109:A 0
10 *3:10 *71:8 0
11 *3:10 *71:32 0
*RES
1 clock_i *3:10 41.9004 
2 *3:10 *1086:A 44.532 
*END

*D_NET *4 0.00154285
*CONN
*P counter_value_o[0] O
*I *1108:X O *D sg13cmos5l_buf_1
*CAP
1 counter_value_o[0] 0.000771425
2 *1108:X 0.000771425
*RES
1 *1108:X counter_value_o[0] 29.4039 
*END

*D_NET *5 0.00153378
*CONN
*P counter_value_o[1] O
*I *1109:X O *D sg13cmos5l_buf_1
*CAP
1 counter_value_o[1] 0.000766888
2 *1109:X 0.000766888
*RES
1 *1109:X counter_value_o[1] 29.4039 
*END

*D_NET *6 0.00153378
*CONN
*P counter_value_o[2] O
*I *1110:X O *D sg13cmos5l_buf_1
*CAP
1 counter_value_o[2] 0.000766888
2 *1110:X 0.000766888
*RES
1 *1110:X counter_value_o[2] 29.4039 
*END

*D_NET *7 0.00152358
*CONN
*P counter_value_o[3] O
*I *1111:X O *D sg13cmos5l_buf_1
*CAP
1 counter_value_o[3] 0.000761791
2 *1111:X 0.000761791
*RES
1 *1111:X counter_value_o[3] 29.4039 
*END

*D_NET *8 0.00152358
*CONN
*P counter_value_o[4] O
*I *1112:X O *D sg13cmos5l_buf_1
*CAP
1 counter_value_o[4] 0.000761791
2 *1112:X 0.000761791
*RES
1 *1112:X counter_value_o[4] 29.4039 
*END

*D_NET *9 0.00162609
*CONN
*P counter_value_o[5] O
*I *1113:X O *D sg13cmos5l_buf_1
*CAP
1 counter_value_o[5] 0.000813046
2 *1113:X 0.000813046
*RES
1 *1113:X counter_value_o[5] 30.1043 
*END

*D_NET *10 0.00152358
*CONN
*P counter_value_o[6] O
*I *1114:X O *D sg13cmos5l_buf_1
*CAP
1 counter_value_o[6] 0.000761791
2 *1114:X 0.000761791
*RES
1 *1114:X counter_value_o[6] 29.4039 
*END

*D_NET *11 0.00152358
*CONN
*P counter_value_o[7] O
*I *1107:X O *D sg13cmos5l_buf_1
*CAP
1 counter_value_o[7] 0.000761791
2 *1107:X 0.000761791
*RES
1 *1107:X counter_value_o[7] 29.4039 
*END

*D_NET *12 0.000839604
*CONN
*P enable_i I
*I *1105:A I *D sg13cmos5l_buf_1
*CAP
1 enable_i 0.000419802
2 *1105:A 0.000419802
3 *1105:A *49:8 0
*RES
1 enable_i *1105:A 44.9955 
*END

*D_NET *13 0.000595311
*CONN
*P reset_n_i I
*I *1106:A I *D sg13cmos5l_buf_1
*CAP
1 reset_n_i 0.000297655
2 *1106:A 0.000297655
3 *1106:A *49:8 0
*RES
1 reset_n_i *1106:A 43.6977 
*END

*D_NET *14 0.000949718
*CONN
*I *1082:D I *D sg13cmos5l_dfrbpq_1
*I *1042:Y O *D sg13cmos5l_nor2_1
*CAP
1 *1082:D 0.000386126
2 *1042:Y 0.000386126
3 *1082:D *1082:RESET_B 0.000177466
4 *1082:D *1110:A 0
5 *1082:D *45:19 0
*RES
1 *1042:Y *1082:D 44.2436 
*END

*D_NET *15 0.000198665
*CONN
*I *1094:A I *D sg13cmos5l_dlygate4sd3_1
*I *1048:Y O *D sg13cmos5l_a21oi_1
*CAP
1 *1094:A 9.16322e-05
2 *1048:Y 9.16322e-05
3 *1094:A *63:10 1.54008e-05
*RES
1 *1048:Y *1094:A 41.133 
*END

*D_NET *16 0.000658505
*CONN
*I *1091:A I *D sg13cmos5l_dlygate4sd3_1
*I *1052:Y O *D sg13cmos5l_a21oi_1
*CAP
1 *1091:A 3.56971e-05
2 *1052:Y 0.000128701
3 *16:10 0.000164398
4 *16:10 *1052:A1 4.77425e-05
5 *16:10 *1052:B1 4.77425e-05
6 *16:10 *1111:A 0
7 *16:10 *30:16 0.000234224
8 *16:10 *31:10 0
*RES
1 *1052:Y *16:10 41.6274 
2 *16:10 *1091:A 40.3193 
*END

*D_NET *17 0.0013532
*CONN
*I *1103:A I *D sg13cmos5l_dlygate4sd3_1
*I *1057:X O *D sg13cmos5l_mux2_1
*CAP
1 *1103:A 5.62669e-05
2 *1057:X 0.000418915
3 *17:10 0.000475182
4 *17:10 *1053:A 0
5 *17:10 *1058:A 0.000274677
6 *17:10 *47:35 0
7 *17:10 *60:83 0
8 *17:10 *60:98 0.00012816
*RES
1 *1057:X *17:10 44.2848 
2 *17:10 *1103:A 40.2628 
*END

*D_NET *18 0.00128548
*CONN
*I *1100:A I *D sg13cmos5l_dlygate4sd3_1
*I *1062:X O *D sg13cmos5l_mux2_1
*CAP
1 *1100:A 0.000505433
2 *1062:X 0.000505433
3 *1100:A *1062:A0 0
4 *1100:A *1062:A1 0
5 *1100:A *1072:RESET_B 0.000274611
6 *1100:A *1072:D 0
7 *1100:A *60:83 0
*RES
1 *1062:X *1100:A 45.6238 
*END

*D_NET *19 0.000311659
*CONN
*I *1076:D I *D sg13cmos5l_dfrbpq_1
*I *1064:X O *D sg13cmos5l_and2_1
*CAP
1 *1076:D 0.000155829
2 *1064:X 0.000155829
3 *1076:D *1064:B 0
4 *1076:D *1076:RESET_B 0
*RES
1 *1064:X *1076:D 41.3499 
*END

*D_NET *20 0.000344527
*CONN
*I *1078:D I *D sg13cmos5l_dfrbpq_1
*I *1067:X O *D sg13cmos5l_and2_1
*CAP
1 *1078:D 0.000172264
2 *1067:X 0.000172264
3 *1078:D *1067:B 0
*RES
1 *1067:X *1078:D 41.7819 
*END

*D_NET *21 0.000429804
*CONN
*I *1080:D I *D sg13cmos5l_dfrbpq_1
*I *1069:X O *D sg13cmos5l_and2_1
*CAP
1 *1080:D 0.000214902
2 *1069:X 0.000214902
3 *1080:D *1069:B 0
*RES
1 *1069:X *1080:D 41.9673 
*END

*D_NET *22 0.00484858
*CONN
*I *1042:A I *D sg13cmos5l_nor2_1
*I *1048:B1 I *D sg13cmos5l_a21oi_1
*I *1052:B1 I *D sg13cmos5l_a21oi_1
*I *1039:Y O *D sg13cmos5l_inv_1
*CAP
1 *1042:A 0
2 *1048:B1 0.000470364
3 *1052:B1 0.000255271
4 *1039:Y 0.000101709
5 *22:38 0.000452751
6 *22:10 0.00117037
7 *22:6 0.000999196
8 *1048:B1 *1048:A2 0
9 *1048:B1 *1084:RESET_B 0
10 *1048:B1 *1084:D 0
11 *1048:B1 *1093:A 0
12 *1048:B1 *26:42 0
13 *1048:B1 *58:12 0
14 *1048:B1 *60:57 0
15 *1048:B1 *63:10 0.000209599
16 *1052:B1 *1050:A1 0
17 *1052:B1 *1052:A2 0
18 *1052:B1 *26:34 0
19 *1052:B1 *26:48 0
20 *1052:B1 *45:9 0
21 *1052:B1 *58:27 0
22 *22:6 *1095:A 0
23 *22:10 *26:16 0.00114158
24 *22:10 *26:42 0
25 *22:10 *60:57 0
26 *22:38 *1042:B 0
27 *22:38 *45:19 0
28 *22:38 *78:22 0
29 *16:10 *1052:B1 4.77425e-05
*RES
1 *1039:Y *22:6 20.9682 
2 *22:6 *22:10 26.5302 
3 *22:10 *1052:B1 42.4823 
4 *22:10 *1048:B1 44.9337 
5 *22:6 *22:38 44.5629 
6 *22:38 *1042:A 20 
*END

*D_NET *23 0.00272342
*CONN
*I *1041:B I *D sg13cmos5l_xor2_1
*I *1040:Y O *D sg13cmos5l_nand4_1
*CAP
1 *1041:B 0
2 *1040:Y 0.000236271
3 *23:14 0.00111774
4 *23:8 0.00135401
5 *23:8 *1044:A 0
6 *23:8 *26:10 0
7 *23:8 *60:38 0
8 *23:14 *1042:B 0
9 *23:14 *24:10 1.54008e-05
10 *23:14 *26:10 0
11 *23:14 *26:16 0
12 *23:14 *60:42 0
*RES
1 *1040:Y *23:8 42.266 
2 *23:8 *23:14 30.1558 
3 *23:14 *1041:B 20 
*END

*D_NET *24 0.000804517
*CONN
*I *1096:A I *D sg13cmos5l_dlygate4sd3_1
*I *1041:X O *D sg13cmos5l_xor2_1
*CAP
1 *1096:A 0
2 *1041:X 0.000394558
3 *24:10 0.000394558
4 *24:10 *1041:A 0
5 *24:10 *26:16 0
6 *24:10 *60:42 0
7 *23:14 *24:10 1.54008e-05
*RES
1 *1041:X *24:10 43.8831 
2 *24:10 *1096:A 40 
*END

*D_NET *25 0.00132428
*CONN
*I *1044:A I *D sg13cmos5l_buf_4
*I *1043:Y O *D sg13cmos5l_nand3_1
*CAP
1 *1044:A 0.000622096
2 *1043:Y 0.000622096
3 *1044:A *1040:D 8.00842e-05
4 *1044:A *1043:B 0
5 *1044:A *1043:A 0
6 *1044:A *1097:A 0
7 *1044:A *26:10 0
8 *1044:A *60:38 0
9 *23:8 *1044:A 0
*RES
1 *1043:Y *1044:A 46.2109 
*END

*D_NET *26 0.0147201
*CONN
*I *1068:B I *D sg13cmos5l_xnor2_1
*I *1050:A1 I *D sg13cmos5l_o21ai_1
*I *1051:B I *D sg13cmos5l_or3_1
*I *1061:B I *D sg13cmos5l_nor4_2
*I *1056:A I *D sg13cmos5l_nor3_1
*I *1047:B I *D sg13cmos5l_or3_1
*I *1046:A1 I *D sg13cmos5l_o21ai_1
*I *1044:X O *D sg13cmos5l_buf_4
*CAP
1 *1068:B 3.78077e-05
2 *1050:A1 0.000162857
3 *1051:B 0
4 *1061:B 2.18538e-05
5 *1056:A 0.000184984
6 *1047:B 0
7 *1046:A1 0.000246791
8 *1044:X 0.000302565
9 *26:50 0.000206838
10 *26:48 0.000849639
11 *26:42 0.00117834
12 *26:34 0.000557136
13 *26:18 0.000413725
14 *26:16 0.00157024
15 *26:10 0.0016781
16 *1046:A1 *1046:B1 0.000177339
17 *1046:A1 *1047:C 0
18 *1046:A1 *27:12 0
19 *1050:A1 *1049:B 9.72497e-05
20 *1050:A1 *30:8 1.54556e-05
21 *1050:A1 *45:9 0
22 *1050:A1 *58:27 0
23 *1056:A *1054:B_N 0
24 *1056:A *1061:A 0.000209637
25 *1056:A *1061:C 0
26 *1056:A *27:29 0
27 *1056:A *36:10 0.000241979
28 *1061:B *1061:A 4.77425e-05
29 *1061:B *36:10 3.23417e-05
30 *26:10 *60:38 0
31 *26:16 *1041:A 0
32 *26:16 *45:19 0
33 *26:16 *60:38 0
34 *26:16 *75:10 0
35 *26:16 *77:8 0.000318598
36 *26:16 *77:14 0.000396398
37 *26:16 *77:20 0
38 *26:16 *77:47 0.00176085
39 *26:18 *1046:B1 1.54008e-05
40 *26:18 *1049:B 0.000241847
41 *26:34 *1049:B 9.72993e-05
42 *26:34 *45:9 0
43 *26:42 *1088:A 0
44 *26:42 *58:12 7.51285e-05
45 *26:42 *58:27 3.23417e-05
46 *26:48 *1055:A 0.00186898
47 *26:48 *36:10 7.51285e-05
48 *26:48 *58:12 0.000448515
49 *26:48 *58:27 1.54008e-05
50 *26:48 *60:57 0
51 *26:48 *79:12 0
52 *26:48 *79:44 0
53 *26:48 *80:27 0
54 *1044:A *26:10 0
55 *1048:B1 *26:42 0
56 *1052:B1 *1050:A1 0
57 *1052:B1 *26:34 0
58 *1052:B1 *26:48 0
59 *22:10 *26:16 0.00114158
60 *22:10 *26:42 0
61 *23:8 *26:10 0
62 *23:14 *26:10 0
63 *23:14 *26:16 0
64 *24:10 *26:16 0
*RES
1 *1044:X *26:10 42.7398 
2 *26:10 *26:16 37.4791 
3 *26:16 *26:18 1.8334 
4 *26:18 *1046:A1 22.4308 
5 *26:18 *1047:B 20 
6 *26:16 *26:34 0.7519 
7 *26:34 *26:42 43.1415 
8 *26:42 *26:48 33.0295 
9 *26:48 *26:50 20 
10 *26:50 *1056:A 22.0497 
11 *26:50 *1061:B 20.3193 
12 *26:42 *1051:B 20 
13 *26:34 *1050:A1 21.6171 
14 *26:10 *1068:B 40.3193 
*END

*D_NET *27 0.00602934
*CONN
*I *1047:C I *D sg13cmos5l_or3_1
*I *1061:C I *D sg13cmos5l_nor4_2
*I *1056:B I *D sg13cmos5l_nor3_1
*I *1046:A2 I *D sg13cmos5l_o21ai_1
*I *1045:Y O *D sg13cmos5l_nand2_2
*CAP
1 *1047:C 2.76224e-05
2 *1061:C 0.00019944
3 *1056:B 0
4 *1046:A2 0
5 *1045:Y 6.68694e-05
6 *27:29 0.00131841
7 *27:12 0.00141465
8 *27:6 0.000390171
9 *1047:C *1045:B 0
10 *1061:C *1056:C 0
11 *1061:C *36:10 0.000274348
12 *1061:C *79:44 0.000241875
13 *27:12 *1045:B 0
14 *27:12 *29:8 0
15 *27:12 *62:25 0
16 *27:29 *1055:B 0
17 *27:29 *1056:C 0
18 *27:29 *29:8 0
19 *27:29 *60:57 0
20 *27:29 *62:10 0.0015714
21 *27:29 *62:25 0
22 *27:29 *63:10 0.000181608
23 *27:29 *64:8 0.000342951
24 *1046:A1 *1047:C 0
25 *1046:A1 *27:12 0
26 *1056:A *1061:C 0
27 *1056:A *27:29 0
*RES
1 *1045:Y *27:6 20.8446 
2 *27:6 *27:12 22.9561 
3 *27:12 *1046:A2 40 
4 *27:12 *27:29 36.2328 
5 *27:29 *1056:B 20 
6 *27:29 *1061:C 22.266 
7 *27:6 *1047:C 20.3193 
*END

*D_NET *28 0.000325383
*CONN
*I *1093:A I *D sg13cmos5l_dlygate4sd3_1
*I *1046:Y O *D sg13cmos5l_o21ai_1
*CAP
1 *1093:A 0.000138756
2 *1046:Y 0.000138756
3 *1093:A *1046:B1 4.78711e-05
4 *1093:A *1048:A2 0
5 *1048:B1 *1093:A 0
*RES
1 *1046:Y *1093:A 41.4008 
*END

*D_NET *29 0.000611865
*CONN
*I *1048:A2 I *D sg13cmos5l_a21oi_1
*I *1047:X O *D sg13cmos5l_or3_1
*CAP
1 *1048:A2 0.000151839
2 *1047:X 0.000154094
3 *29:8 0.000305933
4 *29:8 *62:25 0
5 *1048:B1 *1048:A2 0
6 *1093:A *1048:A2 0
7 *27:12 *29:8 0
8 *27:29 *29:8 0
*RES
1 *1047:X *29:8 41.339 
2 *29:8 *1048:A2 41.4008 
*END

*D_NET *30 0.00158017
*CONN
*I *1050:A2 I *D sg13cmos5l_o21ai_1
*I *1051:C I *D sg13cmos5l_or3_1
*I *1049:Y O *D sg13cmos5l_nand3_1
*CAP
1 *1050:A2 0
2 *1051:C 0
3 *1049:Y 0.00015413
4 *30:16 0.000503417
5 *30:8 0.000657547
6 *30:8 *31:10 0
7 *30:8 *58:27 1.54008e-05
8 *30:16 *1070:D 0
9 *30:16 *1084:RESET_B 0
10 *30:16 *1088:A 0
11 *30:16 *31:10 0
12 *30:16 *58:27 0
13 *1050:A1 *30:8 1.54556e-05
14 *1086:A *30:8 0
15 *16:10 *30:16 0.000234224
*RES
1 *1049:Y *30:8 21.6274 
2 *30:8 *30:16 44.9028 
3 *30:16 *1051:C 20 
4 *30:8 *1050:A2 20 
*END

*D_NET *31 0.00106644
*CONN
*I *1090:A I *D sg13cmos5l_dlygate4sd3_1
*I *1050:Y O *D sg13cmos5l_o21ai_1
*CAP
1 *1090:A 0
2 *1050:Y 0.000525521
3 *31:10 0.000525521
4 *31:10 *1052:A1 0
5 *31:10 *1111:A 0
6 *31:10 *58:27 1.54008e-05
7 *16:10 *31:10 0
8 *30:8 *31:10 0
9 *30:16 *31:10 0
*RES
1 *1050:Y *31:10 45.8298 
2 *31:10 *1090:A 40 
*END

*D_NET *32 0.000337955
*CONN
*I *1052:A2 I *D sg13cmos5l_a21oi_1
*I *1051:X O *D sg13cmos5l_or3_1
*CAP
1 *1052:A2 0.000161277
2 *1051:X 0.000161277
3 *1052:A2 *1052:A1 1.54008e-05
4 *1052:A2 *58:27 0
5 *1052:B1 *1052:A2 0
*RES
1 *1051:X *1052:A2 41.4008 
*END

*D_NET *33 0.000459059
*CONN
*I *1057:A0 I *D sg13cmos5l_mux2_1
*I *1053:X O *D sg13cmos5l_and2_1
*CAP
1 *1057:A0 0.000222055
2 *1053:X 0.000222055
3 *1057:A0 *1053:A 0
4 *1057:A0 *1057:A1 1.49483e-05
*RES
1 *1053:X *1057:A0 42.3484 
*END

*D_NET *34 0.000588643
*CONN
*I *1057:A1 I *D sg13cmos5l_mux2_1
*I *1054:Y O *D sg13cmos5l_nor2b_1
*CAP
1 *1057:A1 0.000165713
2 *1054:Y 0.000165713
3 *1057:A1 *1053:A 0.000242269
4 *1057:A0 *1057:A1 1.49483e-05
*RES
1 *1054:Y *1057:A1 41.9673 
*END

*D_NET *35 0.000970342
*CONN
*I *1061:D I *D sg13cmos5l_nor4_2
*I *1056:C I *D sg13cmos5l_nor3_1
*I *1055:Y O *D sg13cmos5l_nand2_1
*CAP
1 *1061:D 4.51692e-05
2 *1056:C 0.000209429
3 *1055:Y 0.000101935
4 *35:6 0.000356533
5 *1056:C *1055:B 0
6 *1056:C *79:44 0.000177164
7 *1061:D *79:44 8.01118e-05
8 *1061:C *1056:C 0
9 *27:29 *1056:C 0
*RES
1 *1055:Y *35:6 21.339 
2 *35:6 *1056:C 22.1836 
3 *35:6 *1061:D 20.5356 
*END

*D_NET *36 0.0014345
*CONN
*I *1057:S I *D sg13cmos5l_mux2_1
*I *1056:Y O *D sg13cmos5l_nor3_1
*CAP
1 *1057:S 0
2 *1056:Y 0.000405353
3 *36:10 0.000405353
4 *36:10 *40:8 0
5 *36:10 *60:57 0
6 *36:10 *60:70 0
7 *1056:A *36:10 0.000241979
8 *1061:B *36:10 3.23417e-05
9 *1061:C *36:10 0.000274348
10 *26:48 *36:10 7.51285e-05
*RES
1 *1056:Y *36:10 44.1612 
2 *36:10 *1057:S 40 
*END

*D_NET *37 0.000397934
*CONN
*I *1062:A0 I *D sg13cmos5l_mux2_1
*I *1058:X O *D sg13cmos5l_and2_1
*CAP
1 *1062:A0 0.000191239
2 *1058:X 0.000191239
3 *1062:A0 *1062:A1 1.54556e-05
4 *1062:A0 *1062:S 0
5 *1062:A0 *60:83 0
6 *1100:A *1062:A0 0
*RES
1 *1058:X *1062:A0 41.259 
*END

*D_NET *38 0.000603105
*CONN
*I *1062:A1 I *D sg13cmos5l_mux2_1
*I *1059:Y O *D sg13cmos5l_nor2b_1
*CAP
1 *1062:A1 0.000253711
2 *1059:Y 0.000253711
3 *1062:A1 *1059:A 8.02272e-05
4 *1062:A1 *60:83 0
5 *1062:A0 *1062:A1 1.54556e-05
6 *1100:A *1062:A1 0
*RES
1 *1059:Y *1062:A1 42.5647 
*END

*D_NET *39 0.00067947
*CONN
*I *1061:A I *D sg13cmos5l_nor4_2
*I *1060:Y O *D sg13cmos5l_inv_1
*CAP
1 *1061:A 0.000211045
2 *1060:Y 0.000211045
3 *1056:A *1061:A 0.000209637
4 *1061:B *1061:A 4.77425e-05
*RES
1 *1060:Y *1061:A 42.5647 
*END

*D_NET *40 0.00186205
*CONN
*I *1062:S I *D sg13cmos5l_mux2_1
*I *1061:Y O *D sg13cmos5l_nor4_2
*CAP
1 *1062:S 4.82721e-05
2 *1061:Y 0.000352818
3 *40:8 0.000401091
4 *1062:S *60:83 8.02431e-05
5 *40:8 *1058:A 0
6 *40:8 *60:70 0
7 *40:8 *80:27 0.000979629
8 *1062:A0 *1062:S 0
9 *36:10 *40:8 0
*RES
1 *1061:Y *40:8 44.5526 
2 *40:8 *1062:S 40.5356 
*END

*D_NET *41 0.000318482
*CONN
*I *1064:B I *D sg13cmos5l_and2_1
*I *1063:X O *D sg13cmos5l_xor2_1
*CAP
1 *1064:B 0.00013537
2 *1063:X 0.00013537
3 *1064:B *1063:B 4.77425e-05
4 *1064:B *1076:RESET_B 0
5 *1076:D *1064:B 0
*RES
1 *1063:X *1064:B 41.4008 
*END

*D_NET *42 0.000726196
*CONN
*I *1066:B I *D sg13cmos5l_xnor2_1
*I *1065:Y O *D sg13cmos5l_nand2_1
*CAP
1 *1066:B 0.000241941
2 *1065:Y 0.000241941
3 *1066:B *1066:A 0.000242313
4 *1066:B *1078:RESET_B 0
*RES
1 *1065:Y *1066:B 42.9561 
*END

*D_NET *43 0.000907738
*CONN
*I *1098:A I *D sg13cmos5l_dlygate4sd3_1
*I *1066:Y O *D sg13cmos5l_xnor2_1
*CAP
1 *1098:A 0
2 *1066:Y 0.000309574
3 *43:10 0.000309574
4 *43:10 *1066:A 0
5 *43:10 *60:38 0.000288589
*RES
1 *1066:Y *43:10 43.6359 
2 *43:10 *1098:A 40 
*END

*D_NET *44 0.000550461
*CONN
*I *1069:B I *D sg13cmos5l_and2_1
*I *1068:Y O *D sg13cmos5l_xnor2_1
*CAP
1 *1069:B 0.000275231
2 *1068:Y 0.000275231
3 *1069:B *60:38 0
4 *1080:D *1069:B 0
*RES
1 *1068:Y *1069:B 42.3999 
*END

*D_NET *45 0.00410818
*CONN
*I *1088:A I *D sg13cmos5l_buf_8
*I *1087:A I *D sg13cmos5l_buf_8
*I *1086:X O *D sg13cmos5l_buf_8
*CAP
1 *1088:A 0.000895719
2 *1087:A 0
3 *1086:X 0.000117903
4 *45:19 0.00104047
5 *45:9 0.00205409
6 *1088:A *1055:A 0
7 *1088:A *1070:RESET_B 0
8 *1088:A *1089:A 0
9 *1088:A *47:10 0
10 *1088:A *53:10 0
11 *1088:A *58:12 0
12 *1088:A *58:27 0
13 *45:19 *1110:A 0
14 *45:19 *1111:A 0
15 *45:19 *46:21 0
16 *45:19 *77:47 0
17 *45:19 *78:22 0
18 *1050:A1 *45:9 0
19 *1052:B1 *45:9 0
20 *1082:D *45:19 0
21 *22:38 *45:19 0
22 *26:16 *45:19 0
23 *26:34 *45:9 0
24 *26:42 *1088:A 0
25 *30:16 *1088:A 0
*RES
1 *1086:X *45:9 40.9682 
2 *45:9 *45:19 31.086 
3 *45:19 *1087:A 20 
4 *45:9 *1088:A 48.4872 
*END

*D_NET *46 0.00938131
*CONN
*I *1078:CLK I *D sg13cmos5l_dfrbpq_1
*I *1076:CLK I *D sg13cmos5l_dfrbpq_1
*I *1082:CLK I *D sg13cmos5l_dfrbpq_1
*I *1080:CLK I *D sg13cmos5l_dfrbpq_1
*I *1087:X O *D sg13cmos5l_buf_8
*CAP
1 *1078:CLK 0
2 *1076:CLK 0.000794268
3 *1082:CLK 0
4 *1080:CLK 2.77263e-05
5 *1087:X 0
6 *46:30 0.00177809
7 *46:21 0.000414609
8 *46:8 0.000671065
9 *46:4 0.00121255
10 *1076:CLK *1040:D 0
11 *1076:CLK *1108:A 0
12 *1076:CLK *49:16 0.0019442
13 *1076:CLK *49:29 0.000234726
14 *1076:CLK *71:8 0
15 *1076:CLK *71:32 0
16 *1080:CLK *1104:A 0
17 *46:8 *1110:A 0
18 *46:8 *77:14 0
19 *46:21 *77:8 0.000340367
20 *46:21 *77:14 0.000289002
21 *46:21 *77:47 0.000822136
22 *46:30 *1040:D 0
23 *46:30 *49:29 0.000852575
24 *46:30 *60:38 0
25 *46:30 *77:14 0
26 *46:30 *77:20 0
27 *45:19 *46:21 0
*RES
1 *1087:X *46:4 20 
2 *46:4 *46:8 2.1836 
3 *46:8 *1080:CLK 20.3502 
4 *46:8 *46:21 46.5302 
5 *46:21 *1082:CLK 20 
6 *46:4 *46:30 30.4854 
7 *46:30 *1076:CLK 49.991 
8 *46:30 *1078:CLK 40 
*END

*D_NET *47 0.00470582
*CONN
*I *1074:CLK I *D sg13cmos5l_dfrbpq_1
*I *1072:CLK I *D sg13cmos5l_dfrbpq_1
*I *1070:CLK I *D sg13cmos5l_dfrbpq_1
*I *1084:CLK I *D sg13cmos5l_dfrbpq_1
*I *1088:X O *D sg13cmos5l_buf_8
*CAP
1 *1074:CLK 6.68694e-05
2 *1072:CLK 0.000170702
3 *1070:CLK 0
4 *1084:CLK 0.000298048
5 *1088:X 0.000279213
6 *47:35 0.00157851
7 *47:31 0.00134094
8 *47:10 0.000577261
9 *1072:CLK *1099:A 0
10 *1072:CLK *80:27 0
11 *1084:CLK *1084:RESET_B 0
12 *1084:CLK *79:12 0
13 *47:10 *1070:RESET_B 0
14 *47:35 *1089:A 0
15 *47:35 *60:98 0.000394283
16 *47:35 *70:8 0
17 *47:35 *80:27 0
18 *1088:A *47:10 0
19 *17:10 *47:35 0
*RES
1 *1088:X *47:10 22.9664 
2 *47:10 *1084:CLK 23.1106 
3 *47:10 *1070:CLK 20 
4 *1088:X *47:31 40 
5 *47:31 *47:35 35.6766 
6 *47:35 *1072:CLK 21.8334 
7 *47:35 *1074:CLK 20.8446 
*END

*D_NET *48 0.000477793
*CONN
*I *1080:RESET_B I *D sg13cmos5l_dfrbpq_1
*I *1081:L_HI O *D sg13cmos5l_tiehi
*CAP
1 *1080:RESET_B 0.000238896
2 *1081:L_HI 0.000238896
3 *1080:RESET_B *75:10 0
*RES
1 *1081:L_HI *1080:RESET_B 42.266 
*END

*D_NET *49 0.0145919
*CONN
*I *1063:A I *D sg13cmos5l_xor2_1
*I *1043:A I *D sg13cmos5l_nand3_1
*I *1040:B I *D sg13cmos5l_nand4_1
*I *1065:A I *D sg13cmos5l_nand2_1
*I *1105:X O *D sg13cmos5l_buf_1
*CAP
1 *1063:A 0
2 *1043:A 0.00033447
3 *1040:B 0
4 *1065:A 0.000189713
5 *1105:X 0.00256963
6 *49:29 0.000681557
7 *49:16 0.00175672
8 *49:12 0.00140005
9 *49:8 0.00274976
10 *1043:A *1040:C 0.000112558
11 *1043:A *1043:B 0
12 *1065:A *1065:B 0
13 *49:8 *60:6 0.00176595
14 *49:12 *60:10 0
15 *49:16 *1063:B 0
16 *49:16 *1108:A 0
17 *49:16 *60:10 0
18 *49:16 *72:27 0
19 *49:29 *60:38 0
20 *49:29 *72:27 0
21 *1044:A *1043:A 0
22 *1076:CLK *49:16 0.0019442
23 *1076:CLK *49:29 0.000234726
24 *1105:A *49:8 0
25 *1106:A *49:8 0
26 *46:30 *49:29 0.000852575
*RES
1 *1105:X *49:8 49.87 
2 *49:8 *49:12 22.3278 
3 *49:12 *49:16 14.5127 
4 *49:16 *1065:A 41.6171 
5 *49:16 *49:29 25.047 
6 *49:29 *1040:B 20 
7 *49:29 *1043:A 23.6771 
8 *49:12 *1063:A 40 
*END

*D_NET *50 0.00549849
*CONN
*I *1107:A I *D sg13cmos5l_buf_1
*I *1099:A I *D sg13cmos5l_dlygate4sd3_1
*I *1074:Q O *D sg13cmos5l_dfrbpq_1
*CAP
1 *1107:A 0
2 *1099:A 0.000465774
3 *1074:Q 0
4 *50:23 0.00222721
5 *50:6 0.00269299
6 *1099:A *69:10 0
7 *1099:A *80:27 0.000112519
8 *1099:A *81:10 0
9 *1099:A *81:39 0
10 *50:23 *81:39 0
11 *1072:CLK *1099:A 0
*RES
1 *1074:Q *50:6 40 
2 *50:6 *1099:A 45.15 
3 *50:6 *50:23 47.0581 
4 *50:23 *1107:A 20 
*END

*D_NET *51 0.00077986
*CONN
*I *1070:RESET_B I *D sg13cmos5l_dfrbpq_1
*I *1071:L_HI O *D sg13cmos5l_tiehi
*CAP
1 *1070:RESET_B 0.00038993
2 *1071:L_HI 0.00038993
3 *1070:RESET_B *1084:RESET_B 0
4 *1070:RESET_B *1089:A 0
5 *1070:RESET_B *53:10 0
6 *1070:RESET_B *58:8 0
7 *1088:A *1070:RESET_B 0
8 *47:10 *1070:RESET_B 0
*RES
1 *1071:L_HI *1070:RESET_B 43.914 
*END

*D_NET *52 0.000491523
*CONN
*I *1076:RESET_B I *D sg13cmos5l_dfrbpq_1
*I *1077:L_HI O *D sg13cmos5l_tiehi
*CAP
1 *1076:RESET_B 0.000245761
2 *1077:L_HI 0.000245761
3 *1076:RESET_B *1063:B 0
4 *1076:RESET_B *72:8 0
5 *1064:B *1076:RESET_B 0
6 *1076:D *1076:RESET_B 0
*RES
1 *1077:L_HI *1076:RESET_B 42.6162 
*END

*D_NET *53 0.00188576
*CONN
*I *1084:RESET_B I *D sg13cmos5l_dfrbpq_1
*I *1085:L_HI O *D sg13cmos5l_tiehi
*CAP
1 *1084:RESET_B 0.000470413
2 *1085:L_HI 0.000278904
3 *53:10 0.000749316
4 *1084:RESET_B *1070:D 0.000177395
5 *1084:RESET_B *58:8 0.000209736
6 *1048:B1 *1084:RESET_B 0
7 *1070:RESET_B *1084:RESET_B 0
8 *1070:RESET_B *53:10 0
9 *1084:CLK *1084:RESET_B 0
10 *1088:A *53:10 0
11 *30:16 *1084:RESET_B 0
*RES
1 *1085:L_HI *53:10 43.0488 
2 *53:10 *1084:RESET_B 44.8616 
*END

*D_NET *54 0.000813582
*CONN
*I *1082:RESET_B I *D sg13cmos5l_dfrbpq_1
*I *1083:L_HI O *D sg13cmos5l_tiehi
*CAP
1 *1082:RESET_B 0.000318058
2 *1083:L_HI 0.000318058
3 *1082:RESET_B *1042:B 0
4 *1082:D *1082:RESET_B 0.000177466
*RES
1 *1083:L_HI *1082:RESET_B 43.811 
*END

*D_NET *55 0.00052675
*CONN
*I *1074:RESET_B I *D sg13cmos5l_dfrbpq_1
*I *1075:L_HI O *D sg13cmos5l_tiehi
*CAP
1 *1074:RESET_B 0.000263375
2 *1075:L_HI 0.000263375
3 *1074:RESET_B *1074:D 0
*RES
1 *1075:L_HI *1074:RESET_B 42.9252 
*END

*D_NET *56 0.000428583
*CONN
*I *1078:RESET_B I *D sg13cmos5l_dfrbpq_1
*I *1079:L_HI O *D sg13cmos5l_tiehi
*CAP
1 *1078:RESET_B 0.000214292
2 *1079:L_HI 0.000214292
3 *1078:RESET_B *1109:A 0
4 *1066:B *1078:RESET_B 0
*RES
1 *1079:L_HI *1078:RESET_B 42.1836 
*END

*D_NET *57 0.00129562
*CONN
*I *1072:RESET_B I *D sg13cmos5l_dfrbpq_1
*I *1073:L_HI O *D sg13cmos5l_tiehi
*CAP
1 *1072:RESET_B 0.000414083
2 *1073:L_HI 0.000414083
3 *1072:RESET_B *1072:D 0.000177438
4 *1072:RESET_B *1074:D 1.54008e-05
5 *1100:A *1072:RESET_B 0.000274611
*RES
1 *1073:L_HI *1072:RESET_B 44.8616 
*END

*D_NET *58 0.00541192
*CONN
*I *1055:A I *D sg13cmos5l_nand2_1
*I *1050:B1 I *D sg13cmos5l_o21ai_1
*I *1051:A I *D sg13cmos5l_or3_1
*I *1089:X O *D sg13cmos5l_dlygate4sd3_1
*CAP
1 *1055:A 0.000584587
2 *1050:B1 0
3 *1051:A 0
4 *1089:X 0.000142583
5 *58:27 0.000472189
6 *58:12 0.000638339
7 *58:8 0.000893321
8 *1055:A *1089:A 0
9 *1055:A *80:27 0
10 *1048:B1 *58:12 0
11 *1050:A1 *58:27 0
12 *1052:A2 *58:27 0
13 *1052:B1 *58:27 0
14 *1070:RESET_B *58:8 0
15 *1084:RESET_B *58:8 0.000209736
16 *1088:A *1055:A 0
17 *1088:A *58:12 0
18 *1088:A *58:27 0
19 *26:42 *58:12 7.51285e-05
20 *26:42 *58:27 3.23417e-05
21 *26:48 *1055:A 0.00186898
22 *26:48 *58:12 0.000448515
23 *26:48 *58:27 1.54008e-05
24 *30:8 *58:27 1.54008e-05
25 *30:16 *58:27 0
26 *31:10 *58:27 1.54008e-05
*RES
1 *1089:X *58:8 41.4008 
2 *58:8 *58:12 22.3278 
3 *58:12 *1051:A 20 
4 *58:12 *58:27 44.017 
5 *58:27 *1050:B1 20 
6 *58:8 *1055:A 48.755 
*END

*D_NET *59 0.000833869
*CONN
*I *1052:A1 I *D sg13cmos5l_a21oi_1
*I *1090:X O *D sg13cmos5l_dlygate4sd3_1
*CAP
1 *1052:A1 0.000296885
2 *1090:X 0.000296885
3 *1052:A1 *1111:A 0.000176956
4 *1052:A2 *1052:A1 1.54008e-05
5 *16:10 *1052:A1 4.77425e-05
6 *31:10 *1052:A1 0
*RES
1 *1090:X *1052:A1 43.3269 
*END

*D_NET *60 0.0221065
*CONN
*I *1069:A I *D sg13cmos5l_and2_1
*I *1053:B I *D sg13cmos5l_and2_1
*I *1058:B I *D sg13cmos5l_and2_1
*I *1059:B_N I *D sg13cmos5l_nor2b_1
*I *1054:B_N I *D sg13cmos5l_nor2b_1
*I *1039:A I *D sg13cmos5l_inv_1
*I *1067:A I *D sg13cmos5l_and2_1
*I *1064:A I *D sg13cmos5l_and2_1
*I *1106:X O *D sg13cmos5l_buf_1
*CAP
1 *1069:A 1.5935e-05
2 *1053:B 0
3 *1058:B 0
4 *1059:B_N 6.34193e-05
5 *1054:B_N 5.41608e-05
6 *1039:A 0
7 *1067:A 0
8 *1064:A 0
9 *1106:X 0.000981892
10 *60:98 0.000159498
11 *60:83 0.000536725
12 *60:70 0.000670349
13 *60:57 0.00196707
14 *60:46 0.00176054
15 *60:42 0.000976635
16 *60:38 0.00214302
17 *60:19 0.00223377
18 *60:10 0.00129349
19 *60:6 0.00126941
20 *60:10 *1063:B 0
21 *60:19 *1063:B 0
22 *60:19 *72:27 0
23 *60:38 *1043:B 0.000374042
24 *60:38 *1066:A 0.000661472
25 *60:38 *72:27 0
26 *60:38 *75:10 7.51285e-05
27 *60:38 *77:20 0
28 *60:42 *1041:A 0.000613142
29 *60:57 *1041:A 0
30 *60:57 *1045:B 0
31 *60:57 *1060:A 0
32 *60:57 *62:10 0
33 *60:57 *79:12 0.000502791
34 *60:57 *79:25 0.00167522
35 *60:57 *79:44 0.00106719
36 *60:70 *1060:A 0
37 *60:83 *1053:A 0
38 *60:83 *1058:A 0.000307134
39 *60:83 *1059:A 4.72088e-05
40 *1044:A *60:38 0
41 *1048:B1 *60:57 0
42 *1056:A *1054:B_N 0
43 *1062:A0 *60:83 0
44 *1062:A1 *60:83 0
45 *1062:S *60:83 8.02431e-05
46 *1069:B *60:38 0
47 *1100:A *60:83 0
48 *17:10 *60:83 0
49 *17:10 *60:98 0.00012816
50 *22:10 *60:57 0
51 *23:8 *60:38 0
52 *23:14 *60:42 0
53 *24:10 *60:42 0
54 *26:10 *60:38 0
55 *26:16 *60:38 0
56 *26:48 *60:57 0
57 *27:29 *60:57 0
58 *36:10 *60:57 0
59 *36:10 *60:70 0
60 *40:8 *60:70 0
61 *43:10 *60:38 0.000288589
62 *46:30 *60:38 0
63 *47:35 *60:98 0.000394283
64 *49:8 *60:6 0.00176595
65 *49:12 *60:10 0
66 *49:16 *60:10 0
67 *49:29 *60:38 0
*RES
1 *1106:X *60:6 31.7832 
2 *60:6 *60:10 23.5638 
3 *60:10 *1064:A 40 
4 *60:10 *60:19 9.7438 
5 *60:19 *1067:A 40 
6 *60:19 *60:38 34.3891 
7 *60:38 *60:42 30.7326 
8 *60:42 *60:46 20.7519 
9 *60:46 *1039:A 20 
10 *60:46 *60:57 43.381 
11 *60:57 *1054:B_N 40.5356 
12 *60:57 *60:70 22.0806 
13 *60:70 *1059:B_N 20.5356 
14 *60:70 *60:83 3.7354 
15 *60:83 *1058:B 20 
16 *60:83 *60:98 42.4282 
17 *60:98 *1053:B 20 
18 *60:38 *1069:A 20.1493 
*END

*D_NET *61 0.000385384
*CONN
*I *1070:D I *D sg13cmos5l_dfrbpq_1
*I *1091:X O *D sg13cmos5l_dlygate4sd3_1
*CAP
1 *1070:D 0.000103995
2 *1091:X 0.000103995
3 *1084:RESET_B *1070:D 0.000177395
4 *30:16 *1070:D 0
*RES
1 *1091:X *1070:D 41.1845 
*END

*D_NET *62 0.00606982
*CONN
*I *1047:A I *D sg13cmos5l_or3_1
*I *1046:B1 I *D sg13cmos5l_o21ai_1
*I *1055:B I *D sg13cmos5l_nand2_1
*I *1092:X O *D sg13cmos5l_dlygate4sd3_1
*CAP
1 *1047:A 0
2 *1046:B1 0.000240003
3 *1055:B 0.000362947
4 *1092:X 0
5 *62:25 0.000748181
6 *62:10 0.000783417
7 *62:4 0.000928647
8 *62:10 *79:25 0
9 *62:25 *1084:D 0
10 *62:25 *1092:A 0
11 *62:25 *64:8 0
12 *62:25 *79:25 0.00119461
13 *1046:A1 *1046:B1 0.000177339
14 *1056:C *1055:B 0
15 *1093:A *1046:B1 4.78711e-05
16 *26:18 *1046:B1 1.54008e-05
17 *27:12 *62:25 0
18 *27:29 *1055:B 0
19 *27:29 *62:10 0.0015714
20 *27:29 *62:25 0
21 *29:8 *62:25 0
22 *60:57 *62:10 0
*RES
1 *1092:X *62:4 20 
2 *62:4 *62:10 47.2718 
3 *62:10 *1055:B 23.5638 
4 *62:4 *62:25 46.9422 
5 *62:25 *1046:B1 22.7269 
6 *62:25 *1047:A 20 
*END

*D_NET *63 0.000793666
*CONN
*I *1048:A1 I *D sg13cmos5l_a21oi_1
*I *1093:X O *D sg13cmos5l_dlygate4sd3_1
*CAP
1 *1048:A1 0
2 *1093:X 0.000193529
3 *63:10 0.000193529
4 *63:10 *1084:D 0
5 *1048:B1 *63:10 0.000209599
6 *1094:A *63:10 1.54008e-05
7 *27:29 *63:10 0.000181608
*RES
1 *1093:X *63:10 42.2454 
2 *63:10 *1048:A1 40 
*END

*D_NET *64 0.000792317
*CONN
*I *1084:D I *D sg13cmos5l_dfrbpq_1
*I *1094:X O *D sg13cmos5l_dlygate4sd3_1
*CAP
1 *1084:D 0.000130704
2 *1094:X 9.39792e-05
3 *64:8 0.000224683
4 *1048:B1 *1084:D 0
5 *27:29 *64:8 0.000342951
6 *62:25 *1084:D 0
7 *62:25 *64:8 0
8 *63:10 *1084:D 0
*RES
1 *1094:X *64:8 41.5862 
2 *64:8 *1084:D 41.1845 
*END

*D_NET *65 0.0019155
*CONN
*I *1045:B I *D sg13cmos5l_nand2_2
*I *1041:A I *D sg13cmos5l_xor2_1
*I *1095:X O *D sg13cmos5l_dlygate4sd3_1
*CAP
1 *1045:B 0.000284967
2 *1041:A 0.00036621
3 *1095:X 0
4 *65:6 0.000651178
5 *1045:B *1095:A 0
6 *1047:C *1045:B 0
7 *24:10 *1041:A 0
8 *26:16 *1041:A 0
9 *27:12 *1045:B 0
10 *60:42 *1041:A 0.000613142
11 *60:57 *1041:A 0
12 *60:57 *1045:B 0
*RES
1 *1095:X *65:6 40 
2 *65:6 *1041:A 44.3466 
3 *65:6 *1045:B 43.2698 
*END

*D_NET *66 0.000696032
*CONN
*I *1042:B I *D sg13cmos5l_nor2_1
*I *1096:X O *D sg13cmos5l_dlygate4sd3_1
*CAP
1 *1042:B 0.000348016
2 *1096:X 0.000348016
3 *1082:RESET_B *1042:B 0
4 *22:38 *1042:B 0
5 *23:14 *1042:B 0
*RES
1 *1096:X *1042:B 42.2387 
*END

*D_NET *67 0.00385519
*CONN
*I *1043:B I *D sg13cmos5l_nand3_1
*I *1066:A I *D sg13cmos5l_xnor2_1
*I *1097:X O *D sg13cmos5l_dlygate4sd3_1
*CAP
1 *1043:B 0.000467788
2 *1066:A 0.000514274
3 *1097:X 0
4 *67:6 0.000982062
5 *1043:B *1097:A 0.000144992
6 *1043:B *72:27 0.00046825
7 *1066:A *72:27 0
8 *1043:A *1043:B 0
9 *1044:A *1043:B 0
10 *1066:B *1066:A 0.000242313
11 *43:10 *1066:A 0
12 *60:38 *1043:B 0.000374042
13 *60:38 *1066:A 0.000661472
*RES
1 *1097:X *67:6 40 
2 *67:6 *1066:A 45.768 
3 *67:6 *1043:B 45.3972 
*END

*D_NET *68 0.000172882
*CONN
*I *1067:B I *D sg13cmos5l_and2_1
*I *1098:X O *D sg13cmos5l_dlygate4sd3_1
*CAP
1 *1067:B 8.64409e-05
2 *1098:X 8.64409e-05
3 *1078:D *1067:B 0
*RES
1 *1098:X *1067:B 41.0918 
*END

*D_NET *69 0.00269666
*CONN
*I *1059:A I *D sg13cmos5l_nor2b_1
*I *1058:A I *D sg13cmos5l_and2_1
*I *1099:X O *D sg13cmos5l_dlygate4sd3_1
*CAP
1 *1059:A 0.000182147
2 *1058:A 0.000245077
3 *1099:X 0.000566482
4 *69:10 0.000993706
5 *1058:A *1053:A 0
6 *69:10 *1060:A 0
7 *69:10 *80:27 0
8 *69:10 *81:10 0
9 *1062:A1 *1059:A 8.02272e-05
10 *1099:A *69:10 0
11 *17:10 *1058:A 0.000274677
12 *40:8 *1058:A 0
13 *60:83 *1058:A 0.000307134
14 *60:83 *1059:A 4.72088e-05
*RES
1 *1099:X *69:10 46.7877 
2 *69:10 *1058:A 42.9664 
3 *69:10 *1059:A 41.751 
*END

*D_NET *70 0.000596245
*CONN
*I *1074:D I *D sg13cmos5l_dfrbpq_1
*I *1100:X O *D sg13cmos5l_dlygate4sd3_1
*CAP
1 *1074:D 0.000164638
2 *1100:X 0.000125784
3 *70:8 0.000290422
4 *1072:RESET_B *1074:D 1.54008e-05
5 *1074:RESET_B *1074:D 0
6 *47:35 *70:8 0
*RES
1 *1100:X *70:8 41.5862 
2 *70:8 *1074:D 41.6171 
*END

*D_NET *71 0.00631554
*CONN
*I *1040:D I *D sg13cmos5l_nand4_1
*I *1065:B I *D sg13cmos5l_nand2_1
*I *1101:A I *D sg13cmos5l_dlygate4sd3_1
*I *1108:A I *D sg13cmos5l_buf_1
*I *1076:Q O *D sg13cmos5l_dfrbpq_1
*CAP
1 *1040:D 0.000387914
2 *1065:B 0.000259838
3 *1101:A 0.000249651
4 *1108:A 0.000670239
5 *1076:Q 0
6 *71:32 0.00128916
7 *71:8 0.00107345
8 *71:6 0.000794962
9 *1040:D *1040:C 0.000186148
10 *1040:D *1109:A 0.000768695
11 *1101:A *72:8 0
12 *71:32 *1109:A 0.000555408
13 *1044:A *1040:D 8.00842e-05
14 *1065:A *1065:B 0
15 *1076:CLK *1040:D 0
16 *1076:CLK *1108:A 0
17 *1076:CLK *71:8 0
18 *1076:CLK *71:32 0
19 *3:10 *1108:A 0
20 *3:10 *71:8 0
21 *3:10 *71:32 0
22 *46:30 *1040:D 0
23 *49:16 *1108:A 0
*RES
1 *1076:Q *71:6 40 
2 *71:6 *71:8 1.8334 
3 *71:8 *1108:A 47.1894 
4 *71:8 *1101:A 42.4823 
5 *71:6 *71:32 6.8495 
6 *71:32 *1065:B 42.266 
7 *71:32 *1040:D 44.5938 
*END

*D_NET *72 0.0053468
*CONN
*I *1043:C I *D sg13cmos5l_nand3_1
*I *1063:B I *D sg13cmos5l_xor2_1
*I *1101:X O *D sg13cmos5l_dlygate4sd3_1
*CAP
1 *1043:C 0
2 *1063:B 0.000589379
3 *1101:X 5.52414e-05
4 *72:27 0.00177079
5 *72:8 0.00241541
6 *1043:B *72:27 0.00046825
7 *1064:B *1063:B 4.77425e-05
8 *1066:A *72:27 0
9 *1076:RESET_B *1063:B 0
10 *1076:RESET_B *72:8 0
11 *1101:A *72:8 0
12 *49:16 *1063:B 0
13 *49:16 *72:27 0
14 *49:29 *72:27 0
15 *60:10 *1063:B 0
16 *60:19 *1063:B 0
17 *60:19 *72:27 0
18 *60:38 *72:27 0
*RES
1 *1101:X *72:8 40.5356 
2 *72:8 *1063:B 44.8822 
3 *72:8 *72:27 35.8414 
4 *72:27 *1043:C 20 
*END

*D_NET *73 0.00304747
*CONN
*I *1053:A I *D sg13cmos5l_and2_1
*I *1054:A I *D sg13cmos5l_nor2b_1
*I *1102:X O *D sg13cmos5l_dlygate4sd3_1
*CAP
1 *1053:A 0.000435933
2 *1054:A 6.8019e-05
3 *1102:X 0.000289092
4 *73:8 0.000793044
5 *1054:A *1060:A 0.000128406
6 *73:8 *1060:A 0.00109071
7 *1057:A0 *1053:A 0
8 *1057:A1 *1053:A 0.000242269
9 *1058:A *1053:A 0
10 *17:10 *1053:A 0
11 *60:83 *1053:A 0
*RES
1 *1102:X *73:8 45.047 
2 *73:8 *1054:A 40.9167 
3 *73:8 *1053:A 44.3775 
*END

*D_NET *74 0.000471534
*CONN
*I *1072:D I *D sg13cmos5l_dfrbpq_1
*I *1103:X O *D sg13cmos5l_dlygate4sd3_1
*CAP
1 *1072:D 0.000147048
2 *1103:X 0.000147048
3 *1072:RESET_B *1072:D 0.000177438
4 *1100:A *1072:D 0
*RES
1 *1103:X *1072:D 41.5347 
*END

*D_NET *75 0.000984253
*CONN
*I *1068:A I *D sg13cmos5l_xnor2_1
*I *1104:X O *D sg13cmos5l_dlygate4sd3_1
*CAP
1 *1068:A 0
2 *1104:X 0.000454562
3 *75:10 0.000454562
4 *75:10 *77:14 0
5 *75:10 *77:20 0
6 *1080:RESET_B *75:10 0
7 *26:16 *75:10 0
8 *60:38 *75:10 7.51285e-05
*RES
1 *1104:X *75:10 44.223 
2 *75:10 *1068:A 40 
*END

*D_NET *76 0.00341797
*CONN
*I *1040:C I *D sg13cmos5l_nand4_1
*I *1109:A I *D sg13cmos5l_buf_1
*I *1097:A I *D sg13cmos5l_dlygate4sd3_1
*I *1078:Q O *D sg13cmos5l_dfrbpq_1
*CAP
1 *1040:C 0.000129252
2 *1109:A 0.000496182
3 *1097:A 0.00019965
4 *1078:Q 0.00019965
5 *76:22 0.000625433
6 *1040:D *1040:C 0.000186148
7 *1040:D *1109:A 0.000768695
8 *1043:B *1097:A 0.000144992
9 *1043:A *1040:C 0.000112558
10 *1044:A *1097:A 0
11 *1078:RESET_B *1109:A 0
12 *3:10 *1040:C 0
13 *3:10 *1109:A 0
14 *71:32 *1109:A 0.000555408
*RES
1 *1078:Q *1097:A 42.1012 
2 *1078:Q *76:22 40 
3 *76:22 *1109:A 47.4366 
4 *76:22 *1040:C 41.5965 
*END

*D_NET *77 0.00826159
*CONN
*I *1049:A I *D sg13cmos5l_nand3_1
*I *1045:A I *D sg13cmos5l_nand2_2
*I *1110:A I *D sg13cmos5l_buf_1
*I *1104:A I *D sg13cmos5l_dlygate4sd3_1
*I *1040:A I *D sg13cmos5l_nand4_1
*I *1080:Q O *D sg13cmos5l_dfrbpq_1
*CAP
1 *1049:A 0.000221473
2 *1045:A 0.000191642
3 *1110:A 0.000356055
4 *1104:A 8.54121e-05
5 *1040:A 0
6 *1080:Q 0
7 *77:47 0.000820029
8 *77:20 0.000596066
9 *77:14 0.000928927
10 *77:8 0.000665612
11 *77:6 0.000469022
12 *1045:A *1049:B 0
13 *1045:A *1095:A 0
14 *1049:A *1049:B 0
15 *1080:CLK *1104:A 0
16 *1082:D *1110:A 0
17 *1086:A *1049:A 0
18 *26:16 *77:8 0.000318598
19 *26:16 *77:14 0.000396398
20 *26:16 *77:20 0
21 *26:16 *77:47 0.00176085
22 *45:19 *1110:A 0
23 *45:19 *77:47 0
24 *46:8 *1110:A 0
25 *46:8 *77:14 0
26 *46:21 *77:8 0.000340367
27 *46:21 *77:14 0.000289002
28 *46:21 *77:47 0.000822136
29 *46:30 *77:14 0
30 *46:30 *77:20 0
31 *60:38 *77:20 0
32 *75:10 *77:14 0
33 *75:10 *77:20 0
*RES
1 *1080:Q *77:6 40 
2 *77:6 *77:8 1.5862 
3 *77:8 *77:14 23.4505 
4 *77:14 *77:20 45.5414 
5 *77:20 *1040:A 20 
6 *77:14 *1104:A 20.8858 
7 *77:8 *1110:A 43.9964 
8 *77:6 *77:47 28.2606 
9 *77:47 *1045:A 21.8334 
10 *77:47 *1049:A 22.0497 
*END

*D_NET *78 0.00215498
*CONN
*I *1111:A I *D sg13cmos5l_buf_1
*I *1049:C I *D sg13cmos5l_nand3_1
*I *1095:A I *D sg13cmos5l_dlygate4sd3_1
*I *1082:Q O *D sg13cmos5l_dfrbpq_1
*CAP
1 *1111:A 0.000421072
2 *1049:C 0
3 *1095:A 0.000169862
4 *1082:Q 0.000567942
5 *78:22 0.000819152
6 *1045:A *1095:A 0
7 *1045:B *1095:A 0
8 *1052:A1 *1111:A 0.000176956
9 *1086:A *78:22 0
10 *16:10 *1111:A 0
11 *22:6 *1095:A 0
12 *22:38 *78:22 0
13 *31:10 *1111:A 0
14 *45:19 *1111:A 0
15 *45:19 *78:22 0
*RES
1 *1082:Q *1095:A 41.6171 
2 *1082:Q *78:22 43.7286 
3 *78:22 *1049:C 40 
4 *78:22 *1111:A 44.7277 
*END

*D_NET *79 0.0093686
*CONN
*I *1112:A I *D sg13cmos5l_buf_1
*I *1049:B I *D sg13cmos5l_nand3_1
*I *1092:A I *D sg13cmos5l_dlygate4sd3_1
*I *1084:Q O *D sg13cmos5l_dfrbpq_1
*CAP
1 *1112:A 0
2 *1049:B 0.000441875
3 *1092:A 0.000210585
4 *1084:Q 0
5 *79:44 0.000801455
6 *79:25 0.000794767
7 *79:12 0.000753293
8 *79:6 0.00099127
9 *1045:A *1049:B 0
10 *1049:A *1049:B 0
11 *1050:A1 *1049:B 9.72497e-05
12 *1056:C *79:44 0.000177164
13 *1061:C *79:44 0.000241875
14 *1061:D *79:44 8.01118e-05
15 *1084:CLK *79:12 0
16 *26:18 *1049:B 0.000241847
17 *26:34 *1049:B 9.72993e-05
18 *26:48 *79:12 0
19 *26:48 *79:44 0
20 *60:57 *79:12 0.000502791
21 *60:57 *79:25 0.00167522
22 *60:57 *79:44 0.00106719
23 *62:10 *79:25 0
24 *62:25 *1092:A 0
25 *62:25 *79:25 0.00119461
*RES
1 *1084:Q *79:6 40 
2 *79:6 *79:12 22.8634 
3 *79:12 *1092:A 22.0497 
4 *79:12 *79:25 47.7662 
5 *79:25 *1049:B 24.4805 
6 *79:6 *79:44 30.6914 
7 *79:44 *1112:A 20 
*END

*D_NET *80 0.00558596
*CONN
*I *1113:A I *D sg13cmos5l_buf_1
*I *1089:A I *D sg13cmos5l_dlygate4sd3_1
*I *1070:Q O *D sg13cmos5l_dfrbpq_1
*CAP
1 *1113:A 0
2 *1089:A 0.000475351
3 *1070:Q 3.12935e-05
4 *80:27 0.00174026
5 *80:8 0.00224691
6 *1055:A *1089:A 0
7 *1055:A *80:27 0
8 *1070:RESET_B *1089:A 0
9 *1072:CLK *80:27 0
10 *1088:A *1089:A 0
11 *1099:A *80:27 0.000112519
12 *26:48 *80:27 0
13 *40:8 *80:27 0.000979629
14 *47:35 *1089:A 0
15 *47:35 *80:27 0
16 *69:10 *80:27 0
*RES
1 *1070:Q *80:8 40.3193 
2 *80:8 *1089:A 45.3457 
3 *80:8 *80:27 40.5382 
4 *80:27 *1113:A 20 
*END

*D_NET *81 0.00615248
*CONN
*I *1114:A I *D sg13cmos5l_buf_1
*I *1102:A I *D sg13cmos5l_dlygate4sd3_1
*I *1060:A I *D sg13cmos5l_inv_1
*I *1072:Q O *D sg13cmos5l_dfrbpq_1
*CAP
1 *1114:A 0
2 *1102:A 0
3 *1060:A 0.000727953
4 *1072:Q 0.000407927
5 *81:39 0.0013308
6 *81:33 0.0013308
7 *81:10 0.00113588
8 *1054:A *1060:A 0.000128406
9 *1099:A *81:10 0
10 *1099:A *81:39 0
11 *50:23 *81:39 0
12 *60:57 *1060:A 0
13 *60:70 *1060:A 0
14 *69:10 *1060:A 0
15 *69:10 *81:10 0
16 *73:8 *1060:A 0.00109071
*RES
1 *1072:Q *81:10 44.6865 
2 *81:10 *1060:A 49.2494 
3 *81:10 *1102:A 40 
4 *1072:Q *81:33 40 
5 *81:33 *81:39 35.8105 
6 *81:39 *1114:A 20 
*END
